(set-info :Origin "This instance was generated by: BanditFuzz-- an RL fuzzer for SMT solvers" )
(set-info :Author "Joe Scott, Fed Mora, Vijay Ganesh" )
(set-info :Contact "Joe Scott, joseph.scott@uwaterloo.ca")
; solvers/z3.sh
; 	time => 0.2538290023803711
; 	answer => err
; solvers/bitwuzla.sh
; 	time => 0.2050034999847412
; 	answer => err
; solvers/cvc4.sh
; 	time => 0.20415902137756348
; 	answer => err
(set-logic QF_BV)
(declare-const bool_0 Bool)
(declare-const bool_1 Bool)
(declare-const bool_2 Bool)
(declare-const bool_3 Bool)
(declare-const bool_4 Bool)
(declare-const bv_0 (_ BitVec 8))
(declare-const bv_1 (_ BitVec 8))
(declare-const bv_2 (_ BitVec 8))
(declare-const bv_3 (_ BitVec 8))
(declare-const bv_4 (_ BitVec 8))
(assert (bvule (bvand (bvadd bv_1 #x000000c5 ) (bvlshr #x00000084  bv_4)) (bvsdiv (bvsub bv_1 bv_0) (bvshl bv_0 #x000000ea ))))
(assert (bvsle (bvnor (bvurem #x000000b6  bv_1) (bvudiv #x00000010  bv_0)) (bvsrem (bvor #x0000006b  bv_2) (bvmul #x0000001f  #x00000033 ))))
(assert (bvult (bvxnor (bvudiv bv_1 bv_0) (bvsmod bv_4 bv_1)) (bvsub (bvxnor #x0000008c  #x00000021 ) (bvnor bv_1 #x0000006b ))))
(assert (bvsle (bvlshr (bvurem bv_3 bv_2) (bvand bv_2 #x00000000 )) (bvsub (bvand bv_0 bv_4) (bvxor #x00000067  #x00000069 ))))
(assert (bvsgt (bvsrem (bvsrem bv_2 bv_4) (bvxnor bv_2 bv_4)) (bvlshr (bvurem #x000000ca  #x000000e9 ) (bvsdiv #x000000ae  bv_1))))
(check-sat)
(exit)
